1 1 2 0
1 1 -3 0
1 4 5 0
1 -4 6 0
1 7 8 0
1 7 -9 0
1 7 10 0
1 11 -3 0
1 -9 -12 0
1 -2 4 0
1 2 -1 0
1 6 13 0
1 6 11 0
1 -6 -2 0
1 14 9 0
1 15 -8 0
1 15 16 0
1 15 -17 0
1 -18 19 0
1 10 15 0
1 8 -20 0
1 21 17 0
1 22 -10 0
1 22 -23 0
1 23 24 0
1 -25 -21 0
1 25 26 0
1 25 -15 0
1 25 -27 0
1 -28 -29 0
1 30 31 0
1 -30 16 0
1 30 -32 0
1 33 -34 0
1 35 36 0
1 -37 38 0
1 34 38 0
1 13 14 0
1 16 -39 0
1 -16 40 0
1 -41 -42 0
1 39 -43 0
1 -39 -44 0
1 42 -13 0
1 -45 -32 0
1 -29 43 0
1 -29 -45 0
1 29 -46 0
1 29 34 0
1 47 8 0
1 48 -20 0
1 -48 49 0
1 48 -50 0
1 -49 27 0
1 40 -41 0
1 40 51 0
1 -52 -51 0
1 -53 54 0
1 -53 -55 0
1 -50 8 0
1 50 -56 0
1 -57 -58 0
1 27 59 0
1 -27 -56 0
1 55 60 0
1 55 -9 0
1 55 -61 0
1 55 24 0
1 -54 -60 0
1 -54 -24 0
1 -62 25 0
1 62 63 0
1 -24 23 0
1 64 58 0
1 64 65 0
1 66 62 0
1 58 67 0
1 -59 64 0
1 59 68 0
1 -69 70 0
1 -71 -72 0
1 73 -74 0
1 65 -75 0
1 65 76 0
1 65 -72 0
1 77 75 0
1 -77 -65 0
1 -78 -36 0
1 -78 79 0
1 80 81 0
1 80 -82 0
1 80 -83 0
1 -84 85 0
1 82 86 0
1 87 -88 0
1 89 90 0
1 -89 91 0
1 -92 -13 0
1 -92 -81 0
1 -92 93 0
1 -92 -83 0
1 -94 -81 0
1 95 -41 0
1 95 96 0
1 -95 97 0
1 83 -95 0
1 81 -92 0
1 98 92 0
1 -98 94 0
1 98 -38 0
1 98 -80 0
1 31 -35 0
1 31 81 0
1 -99 81 0
1 -99 -37 0
1 -100 -81 0
1 100 101 0
1 -102 -95 0
1 102 -103 0
1 104 -99 0
1 -44 105 0
1 -44 106 0
1 44 -102 0
1 -43 -39 0
1 43 29 0
1 107 -108 0
1 51 -108 0
1 51 109 0
1 -51 107 0
1 51 -102 0
1 106 110 0
1 101 33 0
1 -101 -111 0
1 -105 -112 0
1 105 113 0
1 112 -110 0
1 63 -106 0
1 -63 114 0
1 -115 -56 0
1 -116 -108 0
1 117 -108 0
1 109 118 0
1 109 -51 0
1 -119 -107 0
1 -119 120 0
1 46 110 0
1 46 -29 0
1 46 -113 0
1 -61 121 0
1 61 -56 0
1 -61 -122 0
1 61 -123 0
1 124 109 0
1 -125 -58 0
1 126 124 0
1 126 48 0
1 -126 127 0
1 -128 129 0
1 -122 -61 0
1 129 -130 0
1 -68 59 0
1 -75 128 0
1 -127 -75 0
1 127 -131 0
1 -132 -133 0
1 -133 -68 0
1 -130 -134 0
1 130 129 0
1 135 136 0
1 137 65 0
1 74 138 0
1 74 -73 0
1 -139 -67 0
1 139 140 0
1 -141 142 0
1 -67 -143 0
1 67 -144 0
1 -67 136 0
1 145 75 0
1 145 -146 0
1 -145 -144 0
1 147 138 0
1 147 -148 0
1 -149 138 0
1 149 -150 0
1 150 -142 0
1 148 -151 0
1 -148 152 0
1 -153 154 0
1 153 155 0
1 -153 144 0
1 -142 -139 0
1 -79 -156 0
1 -157 158 0
1 85 159 0
1 -158 -160 0
1 -158 161 0
1 -162 -163 0
1 -91 -164 0
1 96 165 0
1 -96 166 0
1 -166 -162 0
1 167 96 0
1 -167 168 0
1 -167 91 0
1 -167 169 0
1 164 162 0
1 -164 -157 0
1 -88 -170 0
1 -88 89 0
1 171 82 0
1 172 -173 0
1 -172 166 0
1 -173 -172 0
1 174 -175 0
1 -174 -173 0
1 -174 -88 0
1 176 -175 0
1 -176 177 0
1 -165 -178 0
1 165 -88 0
1 179 180 0
1 -179 178 0
1 179 83 0
1 175 -181 0
1 182 -181 0
1 182 -183 0
1 177 181 0
1 181 -184 0
1 185 175 0
1 186 -184 0
1 186 -182 0
1 180 184 0
1 -180 -179 0
1 114 -185 0
1 -114 -102 0
1 187 102 0
1 187 183 0
1 -188 -185 0
1 189 -190 0
1 -189 -112 0
1 189 191 0
1 -192 -193 0
1 -190 194 0
1 -110 -60 0
1 -110 -184 0
1 -110 103 0
1 -110 -113 0
1 113 105 0
1 -113 -192 0
1 195 -46 0
1 196 -192 0
1 -103 -131 0
1 -103 -113 0
1 197 193 0
1 -197 -110 0
1 197 -188 0
1 -198 -188 0
1 -198 199 0
1 198 -196 0
1 -198 -189 0
1 200 121 0
1 201 -103 0
1 -201 122 0
1 -131 -127 0
1 -111 -202 0
1 111 203 0
1 204 -105 0
1 -204 205 0
1 -206 -112 0
1 134 -137 0
1 134 203 0
1 207 -208 0
1 -207 209 0
1 207 135 0
1 -208 -202 0
1 208 -141 0
1 -210 203 0
1 210 -207 0
1 120 211 0
1 120 -212 0
1 136 130 0
1 -136 132 0
1 136 -213 0
1 -214 -215 0
1 -143 -216 0
1 143 217 0
1 -143 218 0
1 143 213 0
1 213 -208 0
1 -213 136 0
1 217 -121 0
1 209 219 0
1 -209 -136 0
1 -144 -216 0
1 220 -218 0
1 -218 -143 0
1 218 144 0
1 -216 221 0
1 216 222 0
1 -223 -224 0
1 225 143 0
1 -155 -226 0
1 -155 -227 0
1 154 -216 0
1 -154 -228 0
1 154 229 0
1 -222 230 0
1 222 226 0
1 226 -138 0
1 226 231 0
1 -226 -222 0
1 229 145 0
1 229 -232 0
1 233 234 0
1 -233 152 0
1 -231 227 0
1 -231 -235 0
1 -236 -152 0
1 -152 -231 0
1 -237 238 0
1 -237 -152 0
1 234 142 0
1 234 239 0
1 -240 -241 0
1 242 -243 0
1 159 244 0
1 245 240 0
1 -244 241 0
1 -244 -246 0
1 247 -240 0
1 243 240 0
1 160 248 0
1 249 250 0
1 251 -244 0
1 -251 252 0
1 -253 254 0
1 253 255 0
1 256 159 0
1 256 -257 0
1 256 -258 0
1 256 -249 0
1 -161 -250 0
1 -161 167 0
1 -161 164 0
1 -168 250 0
1 -168 172 0
1 168 -259 0
1 168 164 0
1 -260 250 0
1 -260 -261 0
1 252 -262 0
1 -252 -161 0
1 -263 260 0
1 -178 -264 0
1 178 -259 0
1 -178 166 0
1 -265 170 0
1 265 182 0
1 265 -252 0
1 266 -267 0
1 266 268 0
1 269 -270 0
1 -269 -168 0
1 259 -271 0
1 259 -272 0
1 261 266 0
1 -261 168 0
1 261 273 0
1 268 -158 0
1 274 176 0
1 -274 275 0
1 274 276 0
1 270 277 0
1 -270 278 0
1 272 279 0
1 -272 180 0
1 -267 266 0
1 267 -280 0
1 281 282 0
1 -184 279 0
1 -184 -186 0
1 -283 190 0
1 -284 -285 0
1 -284 -183 0
1 -286 279 0
1 286 -287 0
1 -279 -184 0
1 -278 288 0
1 278 -289 0
1 277 -290 0
1 -277 -278 0
1 -277 291 0
1 277 283 0
1 -193 292 0
1 -193 285 0
1 -293 -285 0
1 294 286 0
1 295 -296 0
1 -297 298 0
1 -297 299 0
1 297 293 0
1 292 -300 0
1 -285 -193 0
1 301 193 0
1 -301 -302 0
1 -301 -303 0
1 304 -204 0
1 304 305 0
1 -304 206 0
1 306 103 0
1 -307 308 0
1 307 -292 0
1 -307 305 0
1 307 -199 0
1 299 -309 0
1 296 -310 0
1 305 -307 0
1 305 311 0
1 -309 312 0
1 -194 304 0
1 -205 -204 0
1 -205 -298 0
1 -313 308 0
1 314 -315 0
1 314 -316 0
1 314 317 0
1 -318 205 0
1 -318 -319 0
1 -199 -312 0
1 212 320 0
1 -212 -321 0
1 -212 -322 0
1 -211 146 0
1 211 -310 0
1 211 323 0
1 -211 209 0
1 219 -324 0
1 219 322 0
1 320 325 0
1 320 -322 0
1 322 228 0
1 322 -219 0
1 -322 -326 0
1 -322 327 0
1 328 -212 0
1 324 -329 0
1 -228 330 0
1 -325 -330 0
1 325 -331 0
1 332 225 0
1 332 320 0
1 333 -326 0
1 -333 334 0
1 -331 -228 0
1 331 -219 0
1 331 335 0
1 336 337 0
1 336 -338 0
1 330 -323 0
1 -339 -333 0
1 -339 233 0
1 339 232 0
1 340 341 0
1 -334 342 0
1 334 343 0
1 344 345 0
1 346 -345 0
1 -343 -209 0
1 343 347 0
1 348 221 0
1 -349 -350 0
1 349 351 0
1 349 352 0
1 -349 -346 0
1 -353 -344 0
1 342 -354 0
1 221 -355 0
1 221 356 0
1 221 334 0
1 357 -355 0
1 -350 355 0
1 358 221 0
1 354 -359 0
1 -360 -361 0
1 -360 354 0
1 -351 362 0
1 -351 -356 0
1 -352 363 0
1 352 360 0
1 -361 -352 0
1 -364 -359 0
1 -365 -366 0
1 -238 -237 0
1 366 -234 0
1 -367 -368 0
1 369 370 0
1 369 -371 0
1 -372 -247 0
1 373 -374 0
1 374 -375 0
1 -374 -376 0
1 -374 -377 0
1 374 247 0
1 378 -372 0
1 -379 -380 0
1 258 379 0
1 258 -243 0
1 -258 161 0
1 -381 256 0
1 -381 -382 0
1 381 -383 0
1 384 -385 0
1 -376 254 0
1 -386 -374 0
1 387 -388 0
1 -387 -254 0
1 387 246 0
1 254 -389 0
1 -254 256 0
1 -254 383 0
1 390 -391 0
1 392 -390 0
1 385 393 0
1 246 254 0
1 246 394 0
1 246 -381 0
1 383 -395 0
1 396 392 0
1 -396 397 0
1 396 398 0
1 -393 250 0
1 399 -385 0
1 -399 -400 0
1 -401 402 0
1 -401 -261 0
1 273 -385 0
1 -273 402 0
1 400 391 0
1 -391 -400 0
1 403 -394 0
1 403 -401 0
1 -257 -403 0
1 257 -404 0
1 -405 -391 0
1 282 -402 0
1 -282 -276 0
1 282 -391 0
1 -406 -402 0
1 -402 401 0
1 262 -252 0
1 -262 406 0
1 -407 404 0
1 -407 408 0
1 407 -401 0
1 -407 409 0
1 410 193 0
1 -411 -278 0
1 -288 -412 0
1 -288 277 0
1 -288 -413 0
1 291 414 0
1 291 415 0
1 -416 -290 0
1 -416 -288 0
1 415 -417 0
1 -418 419 0
1 420 -421 0
1 303 -277 0
1 -422 -307 0
1 423 -299 0
1 -423 -419 0
1 414 -424 0
1 -414 425 0
1 -414 -426 0
1 -412 -280 0
1 412 288 0
1 -413 -424 0
1 -427 428 0
1 -427 414 0
1 -427 -287 0
1 298 -428 0
1 -298 301 0
1 298 -297 0
1 -426 429 0
1 -426 -302 0
1 -426 -414 0
1 -430 -302 0
1 430 426 0
1 -289 -422 0
1 289 -427 0
1 428 423 0
1 -428 -431 0
1 312 305 0
1 432 -433 0
1 432 -434 0
1 432 317 0
1 -435 -433 0
1 -435 -436 0
1 -300 -315 0
1 -437 -438 0
1 437 433 0
1 319 -318 0
1 -319 -300 0
1 -319 431 0
1 -315 318 0
1 -315 314 0
1 329 439 0
1 439 440 0
1 -439 -441 0
1 440 442 0
1 -443 436 0
1 -441 328 0
1 -444 -324 0
1 -444 -439 0
1 -445 -446 0
1 445 447 0
1 445 316 0
1 -445 327 0
1 -338 336 0
1 -338 -330 0
1 338 334 0
1 -448 449 0
1 -450 -451 0
1 -450 329 0
1 447 449 0
1 447 199 0
1 452 316 0
1 453 454 0
1 455 456 0
1 455 320 0
1 455 457 0
1 -455 458 0
1 -446 -453 0
1 -446 -458 0
1 -457 -459 0
1 345 337 0
1 456 354 0
1 -456 -460 0
1 -461 -337 0
1 461 -335 0
1 462 355 0
1 462 -333 0
1 -335 -345 0
1 335 453 0
1 -459 -345 0
1 -463 -464 0
1 -463 465 0
1 466 462 0
1 460 -355 0
1 460 -467 0
1 -465 -363 0
1 468 347 0
1 -347 363 0
1 347 355 0
1 347 469 0
1 -347 466 0
1 -467 -470 0
1 467 471 0
1 -472 -362 0
1 -472 473 0
1 -473 -474 0
1 473 475 0
1 476 363 0
1 476 477 0
1 -476 478 0
1 470 479 0
1 -470 -469 0
1 -470 -478 0
1 -480 -476 0
1 480 475 0
1 480 481 0
1 482 366 0
1 482 480 0
1 482 475 0
1 -483 -362 0
1 483 -484 0
1 -475 485 0
1 -475 -480 0
1 362 480 0
1 484 486 0
1 -484 472 0
1 486 -487 0
1 -486 482 0
1 486 -488 0
1 -489 490 0
1 491 492 0
1 493 494 0
1 493 -495 0
1 493 -483 0
1 -496 497 0
1 -498 -499 0
1 -500 -501 0
1 -502 -496 0
1 503 504 0
1 -497 -505 0
1 506 507 0
1 508 382 0
1 -507 -498 0
1 507 509 0
1 -507 510 0
1 511 512 0
1 511 -367 0
1 511 513 0
1 -382 381 0
1 509 514 0
1 509 507 0
1 515 368 0
1 -515 516 0
1 -516 517 0
1 516 389 0
1 -518 510 0
1 518 519 0
1 -513 -520 0
1 -380 389 0
1 380 -515 0
1 380 521 0
1 -380 -522 0
1 -380 -378 0
1 389 523 0
1 -524 515 0
1 -525 -386 0
1 -514 389 0
1 514 -523 0
1 -514 -526 0
1 -521 527 0
1 527 -389 0
1 -527 -380 0
1 395 528 0
1 529 383 0
1 -398 -530 0
1 -398 531 0
1 532 -525 0
1 -532 533 0
1 532 395 0
1 -533 -534 0
1 535 536 0
1 535 524 0
1 537 -246 0
1 -537 -538 0
1 539 -540 0
1 539 -531 0
1 534 -403 0
1 534 539 0
1 531 -541 0
1 -531 -398 0
1 542 539 0
1 530 543 0
1 -404 -544 0
1 404 407 0
1 -545 -400 0
1 545 -404 0
1 546 547 0
1 -546 -397 0
1 541 548 0
1 -548 539 0
1 -549 550 0
1 -549 -551 0
1 -549 246 0
1 549 409 0
1 -397 541 0
1 409 548 0
1 -409 -418 0
1 409 -303 0
1 409 -552 0
1 409 -553 0
1 550 -422 0
1 -550 -419 0
1 419 -554 0
1 -419 -555 0
1 419 418 0
1 -556 557 0
1 -558 559 0
1 -560 -416 0
1 -429 -417 0
1 561 562 0
1 -561 -553 0
1 -555 563 0
1 564 -262 0
1 559 550 0
1 -425 -565 0
1 425 566 0
1 -424 564 0
1 424 421 0
1 567 568 0
1 569 570 0
1 -569 568 0
1 -569 -555 0
1 417 567 0
1 421 571 0
1 431 568 0
1 431 417 0
1 -572 -431 0
1 573 -562 0
1 574 570 0
1 -574 -302 0
1 -574 575 0
1 -574 -573 0
1 574 -417 0
1 -575 -572 0
1 568 -576 0
1 568 -577 0
1 -568 578 0
1 568 -575 0
1 -579 580 0
1 579 574 0
1 579 -569 0
1 579 -413 0
1 -579 581 0
1 -570 -574 0
1 -570 431 0
1 436 302 0
1 -436 300 0
1 436 -443 0
1 -438 302 0
1 438 582 0
1 578 -568 0
1 583 584 0
1 -583 -575 0
1 585 -586 0
1 -582 -436 0
1 -582 -573 0
1 587 588 0
1 -451 584 0
1 -451 -577 0
1 -589 590 0
1 -589 591 0
1 -592 -590 0
1 -584 -578 0
1 584 -593 0
1 591 594 0
1 591 -595 0
1 449 450 0
1 -593 -584 0
1 -593 345 0
1 596 597 0
1 -596 598 0
1 -597 -593 0
1 -599 -589 0
1 600 -601 0
1 -600 602 0
1 464 -600 0
1 464 602 0
1 603 -604 0
1 603 -605 0
1 -606 604 0
1 -606 -607 0
1 598 600 0
1 -598 474 0
1 598 606 0
1 608 609 0
1 608 610 0
1 -608 347 0
1 611 -612 0
1 -474 -604 0
1 -474 613 0
1 614 474 0
1 -614 611 0
1 610 615 0
1 616 -474 0
1 616 -607 0
1 -607 -617 0
1 607 -474 0
1 -607 618 0
1 -481 -480 0
1 469 -619 0
1 -620 610 0
1 621 470 0
1 -621 622 0
1 621 -620 0
1 613 487 0
1 -613 -623 0
1 613 474 0
1 -619 -624 0
1 619 625 0
1 612 624 0
1 612 469 0
1 612 626 0
1 612 -611 0
1 478 -627 0
1 -628 494 0
1 -629 623 0
1 629 630 0
1 631 -493 0
1 -631 627 0
1 632 477 0
1 -632 -362 0
1 -632 633 0
1 634 635 0
1 -634 636 0
1 -634 -493 0
1 494 -637 0
1 638 477 0
1 -638 -639 0
1 477 476 0
1 -477 492 0
1 477 640 0
1 633 641 0
1 637 470 0
1 640 477 0
1 642 638 0
1 -642 -643 0
1 -639 635 0
1 -639 495 0
1 -644 -642 0
1 636 -362 0
1 -636 645 0
1 646 647 0
1 -646 -642 0
1 -635 -494 0
1 648 644 0
1 -649 -645 0
1 522 -650 0
1 522 499 0
1 -651 -652 0
1 -652 517 0
1 650 -653 0
1 -650 654 0
1 -650 655 0
1 -650 -502 0
1 517 521 0
1 655 527 0
1 655 652 0
1 -655 -656 0
1 655 -650 0
1 -657 -398 0
1 658 538 0
1 -659 -517 0
1 -660 519 0
1 -538 -523 0
1 538 535 0
1 -538 -661 0
1 662 -663 0
1 -662 -664 0
1 -661 665 0
1 661 -655 0
1 -666 544 0
1 -656 -655 0
1 -656 667 0
1 656 -668 0
1 -656 669 0
1 -670 -665 0
1 670 671 0
1 670 -657 0
1 -544 -672 0
1 544 -673 0
1 -674 -530 0
1 -672 -674 0
1 -675 676 0
1 -675 677 0
1 663 665 0
1 663 -674 0
1 -678 -557 0
1 -678 542 0
1 -679 -397 0
1 680 -681 0
1 680 -682 0
1 680 -683 0
1 684 -547 0
1 684 685 0
1 684 679 0
1 686 687 0
1 686 688 0
1 -686 543 0
1 -689 554 0
1 689 549 0
1 -551 690 0
1 551 -554 0
1 551 560 0
1 -551 684 0
1 691 -692 0
1 693 694 0
1 -693 -695 0
1 -693 696 0
1 -693 691 0
1 -696 689 0
1 696 691 0
1 -682 687 0
1 -682 680 0
1 692 -689 0
1 -692 -693 0
1 692 -691 0
1 -681 -697 0
1 681 551 0
1 566 -698 0
1 -566 -699 0
1 566 553 0
1 -700 -559 0
1 -701 702 0
1 -701 -703 0
1 703 698 0
1 -703 682 0
1 699 -701 0
1 -695 566 0
1 -695 691 0
1 -698 -704 0
1 698 691 0
1 -571 -408 0
1 -571 -564 0
1 563 -559 0
1 -563 -571 0
1 -563 564 0
1 -705 -574 0
1 -705 -706 0
1 -705 421 0
1 -702 580 0
1 -702 707 0
1 702 708 0
1 709 -710 0
1 -711 -712 0
1 711 713 0
1 -708 570 0
1 708 714 0
1 -708 -421 0
1 581 715 0
1 581 716 0
1 580 -702 0
1 -580 717 0
1 -706 -718 0
1 -719 581 0
1 -719 720 0
1 577 706 0
1 -721 -722 0
1 723 -587 0
1 -723 -724 0
1 723 592 0
1 725 726 0
1 727 728 0
1 -727 718 0
1 726 -729 0
1 -726 -590 0
1 726 -586 0
1 586 729 0
1 -594 -730 0
1 -731 732 0
1 -731 -733 0
1 733 726 0
1 733 724 0
1 733 -575 0
1 733 723 0
1 -576 -734 0
1 576 723 0
1 -730 734 0
1 730 735 0
1 730 736 0
1 -730 -737 0
1 730 738 0
1 -729 -724 0
1 -739 -588 0
1 -739 740 0
1 739 -741 0
1 605 -741 0
1 742 605 0
1 741 -739 0
1 -741 -743 0
1 -741 -731 0
1 -744 745 0
1 -744 -731 0
1 740 -736 0
1 746 -744 0
1 747 -748 0
1 -749 750 0
1 749 747 0
1 -750 -746 0
1 -750 -751 0
1 -752 753 0
1 -752 754 0
1 -752 -743 0
1 -752 -755 0
1 754 -756 0
1 -757 758 0
1 757 -601 0
1 -751 759 0
1 751 760 0
1 622 -761 0
1 622 762 0
1 -758 757 0
1 -758 615 0
1 763 -764 0
1 763 -765 0
1 -763 615 0
1 -763 618 0
1 -748 599 0
1 748 766 0
1 -761 -756 0
1 -617 -767 0
1 -617 -614 0
1 765 763 0
1 765 762 0
1 -765 -759 0
1 768 487 0
1 -759 -617 0
1 -759 -751 0
1 762 -769 0
1 762 615 0
1 -626 -770 0
1 626 612 0
1 -624 632 0
1 -771 772 0
1 -773 625 0
1 773 759 0
1 -774 775 0
1 -776 -777 0
1 776 771 0
1 -778 770 0
1 775 -774 0
1 775 -630 0
1 775 779 0
1 -641 770 0
1 -780 -775 0
1 780 -781 0
1 782 783 0
1 782 780 0
1 -782 781 0
1 -783 635 0
1 784 -785 0
1 781 -786 0
1 -787 628 0
1 -787 641 0
1 -668 -659 0
1 -788 789 0
1 -788 790 0
1 -791 792 0
1 -789 792 0
1 665 663 0
1 -793 670 0
1 794 791 0
1 -794 795 0
1 -794 -796 0
1 683 680 0
1 -795 797 0
1 795 658 0
1 -795 -798 0
1 -799 659 0
1 800 -788 0
1 800 -797 0
1 677 -795 0
1 -677 -672 0
1 -801 802 0
1 -803 -801 0
1 796 804 0
1 796 -805 0
1 -796 -806 0
1 804 803 0
1 804 806 0
1 804 807 0
1 667 808 0
1 -667 677 0
1 667 798 0
1 -809 801 0
1 807 -804 0
1 -807 796 0
1 807 -810 0
1 805 -807 0
1 -806 -796 0
1 -806 811 0
1 812 -703 0
1 812 813 0
1 -813 802 0
1 802 805 0
1 -802 -814 0
1 -815 -816 0
1 -815 -817 0
1 815 805 0
1 -815 -803 0
1 -815 806 0
1 816 817 0
1 816 -805 0
1 -814 -813 0
1 -814 696 0
1 -818 808 0
1 -818 -814 0
1 818 696 0
1 704 -819 0
1 704 -820 0
1 811 -821 0
1 811 -684 0
1 -822 812 0
1 -822 -814 0
1 -714 -823 0
1 -714 -697 0
1 -823 824 0
1 823 -697 0
1 -825 -826 0
1 710 820 0
1 -820 -823 0
1 -820 827 0
1 -820 828 0
1 829 -830 0
1 697 -831 0
1 -712 -832 0
1 833 -711 0
1 834 835 0
1 -834 713 0
1 -832 -836 0
1 -832 837 0
1 -838 -839 0
1 -840 -841 0
1 -842 -840 0
1 718 -717 0
1 -718 -726 0
1 718 -843 0
1 718 -837 0
1 837 718 0
1 -837 -838 0
1 -837 -713 0
1 -844 713 0
1 844 -727 0
1 836 713 0
1 836 731 0
1 -836 841 0
1 707 844 0
1 -707 -843 0
1 -707 845 0
1 835 844 0
1 -835 -828 0
1 -835 846 0
1 -713 847 0
1 -728 -739 0
1 735 -848 0
1 845 -707 0
1 -845 -849 0
1 -850 -845 0
1 -850 -836 0
1 -851 852 0
1 -851 -844 0
1 -851 -853 0
1 -854 853 0
1 -854 -855 0
1 -736 -856 0
1 736 -729 0
1 857 858 0
1 -859 -858 0
1 -856 857 0
1 -856 734 0
1 -860 -861 0
1 -860 -862 0
1 863 -856 0
1 863 -744 0
1 743 -848 0
1 -864 865 0
1 756 -761 0
1 756 752 0
1 866 -867 0
1 -866 -756 0
1 866 -749 0
1 -868 -761 0
1 868 869 0
1 -766 748 0
1 -870 865 0
1 -870 -871 0
1 872 744 0
1 872 756 0
1 867 -740 0
1 867 760 0
1 871 873 0
1 764 874 0
1 -764 763 0
1 772 875 0
1 -772 -876 0
1 772 870 0
1 877 878 0
1 755 766 0
1 -879 880 0
1 769 -881 0
1 -769 762 0
1 -882 -874 0
1 -883 -884 0
1 885 886 0
1 -885 -769 0
1 -885 883 0
1 -881 772 0
1 887 -888 0
1 887 777 0
1 -887 -885 0
1 -786 -889 0
1 -889 886 0
1 -889 -883 0
1 -888 874 0
1 798 890 0
1 -798 891 0
1 -797 -805 0
1 -797 891 0
1 -892 -893 0
1 893 -894 0
1 -893 891 0
1 891 -895 0
1 896 -897 0
1 -897 893 0
1 895 898 0
1 -899 900 0
1 -901 900 0
1 894 -901 0
1 -894 899 0
1 900 899 0
1 -898 -808 0
1 898 -893 0
1 -817 -902 0
1 817 -815 0
1 826 903 0
1 -826 904 0
1 905 830 0
1 905 906 0
1 -902 -907 0
1 902 -899 0
1 902 -908 0
1 909 -667 0
1 -909 899 0
1 910 -901 0
1 910 826 0
1 -911 688 0
1 -911 912 0
1 -911 905 0
1 -907 -913 0
1 907 821 0
1 907 -905 0
1 -830 -902 0
1 830 -914 0
1 915 913 0
1 -915 905 0
1 916 -827 0
1 913 827 0
1 -913 -915 0
1 917 -830 0
1 904 918 0
1 -904 919 0
1 827 -920 0
1 827 829 0
1 -831 913 0
1 -831 -921 0
1 -922 842 0
1 922 923 0
1 -922 -920 0
1 -841 -924 0
1 -841 914 0
1 841 925 0
1 -921 839 0
1 921 -841 0
1 -914 821 0
1 920 924 0
1 920 -841 0
1 -924 -926 0
1 -839 838 0
1 -927 928 0
1 927 735 0
1 927 929 0
1 -849 930 0
1 849 -931 0
1 928 -922 0
1 932 933 0
1 -923 933 0
1 934 -927 0
1 935 -930 0
1 846 -851 0
1 -853 -936 0
1 -853 -851 0
1 853 -859 0
1 929 838 0
1 -852 -863 0
1 937 -938 0
1 937 850 0
1 939 929 0
1 -939 940 0
1 -939 760 0
1 -941 -936 0
1 941 937 0
1 -941 869 0
1 942 943 0
1 942 -853 0
1 -938 852 0
1 938 -944 0
1 -862 864 0
1 -862 -945 0
1 -862 -860 0
1 862 946 0
1 869 947 0
1 -869 948 0
1 949 941 0
1 949 -737 0
1 949 869 0
1 949 940 0
1 948 -950 0
1 948 -939 0
1 940 -949 0
1 -855 -939 0
1 -873 -951 0
1 873 952 0
1 -953 952 0
1 876 -950 0
1 876 -954 0
1 950 955 0
1 -950 948 0
1 950 -867 0
1 -950 940 0
1 956 957 0
1 958 956 0
1 -959 -953 0
1 952 950 0
1 952 953 0
1 957 -960 0
1 -961 870 0
1 962 -960 0
1 880 963 0
1 954 880 0
1 955 -961 0
1 -964 965 0
1 -960 -880 0
1 -960 864 0
1 -960 965 0
1 -966 887 0
1 -967 968 0
1 967 -878 0
1 969 -963 0
1 -970 -881 0
1 -970 -971 0
1 -971 969 0
1 972 -973 0
1 -974 -910 0
1 -974 -975 0
1 976 -977 0
1 -978 -919 0
1 978 -976 0
1 -979 -891 0
1 979 976 0
1 -977 972 0
1 973 -972 0
1 -973 897 0
1 -919 -902 0
1 -919 -917 0
1 -908 910 0
1 -918 -980 0
1 925 979 0
1 925 980 0
1 975 -981 0
1 -975 -982 0
1 983 -919 0
1 983 982 0
1 -980 -983 0
1 -980 -925 0
1 984 981 0
1 -931 981 0
1 931 -975 0
1 906 985 0
1 -986 -987 0
1 986 918 0
1 986 982 0
1 -987 -982 0
1 926 -914 0
1 -988 -934 0
1 988 920 0
1 -989 -936 0
1 -989 990 0
1 991 -992 0
1 991 906 0
1 993 -994 0
1 -994 -995 0
1 -994 988 0
1 994 -931 0
1 -996 -997 0
1 -998 -999 0
1 -1000 1001 0
1 -1000 992 0
1 933 -994 0
1 933 997 0
1 -933 -1002 0
1 1003 1004 0
1 1003 1005 0
1 1006 -993 0
1 -1006 1003 0
1 1002 989 0
1 1002 -1003 0
1 1007 989 0
1 -1007 1001 0
1 1007 -920 0
1 1001 999 0
1 -1008 -1009 0
1 1008 999 0
1 -1010 1011 0
1 -1010 1004 0
1 -1012 1002 0
1 1013 1014 0
1 -1013 1003 0
1 -1004 1015 0
1 1016 1017 0
1 -1016 1018 0
1 1019 1020 0
1 1019 -1008 0
1 -944 -855 0
1 -1021 -1022 0
1 1011 1023 0
1 1023 1024 0
1 1025 1026 0
1 1025 951 0
1 1027 -1028 0
1 -1029 1030 0
1 -1029 1031 0
1 1029 -1032 0
1 1033 1034 0
1 -1035 -1036 0
1 -1037 1028 0
1 1037 -1021 0
1 -1037 -1022 0
1 -1034 -1038 0
1 1039 -956 0
1 -1040 969 0
1 1036 1031 0
1 1041 -1033 0
1 -1030 1040 0
1 -1030 1039 0
1 -1042 -987 0
1 -982 975 0
1 990 1043 0
1 -1044 -1045 0
1 -1046 977 0
1 1043 -1042 0
1 1047 998 0
1 1047 1048 0
1 -1049 -1045 0
1 -1049 1050 0
1 1048 990 0
1 1048 1051 0
1 -1048 -1044 0
1 -1048 1052 0
1 1048 1053 0
1 1054 -997 0
1 1045 1047 0
1 1055 -1049 0
1 -1055 997 0
1 1056 -994 0
1 1056 -996 0
1 -999 -1007 0
1 -1057 -1058 0
1 -1059 -1020 0
1 1059 1057 0
1 1058 1047 0
1 1058 -1060 0
1 1058 1020 0
1 -1058 999 0
1 -1058 1061 0
1 -1050 -1062 0
1 1063 -1064 0
1 1061 -1065 0
1 -1061 1066 0
1 -1061 951 0
1 -1020 -944 0
1 -1020 1001 0
1 -1067 -1068 0
1 -1067 -1019 0
1 1067 -1069 0
1 995 1014 0
1 -995 1020 0
1 1066 -1067 0
1 -1066 1020 0
1 1066 -996 0
1 -1066 1070 0
1 -1068 -1070 0
1 -1068 -1053 0
1 1014 -1026 0
1 1014 -1071 0
1 1014 -995 0
1 1014 1004 0
1 1014 1025 0
1 1014 1017 0
1 1032 1072 0
1 1032 1073 0
1 -1073 1067 0
1 1073 1074 0
1 -1069 1075 0
1 -1069 -1076 0
1 1024 1077 0
1 1038 -1077 0
1 1038 1011 0
1 1038 -1072 0
1 -1038 1078 0
1 -1074 1078 0
1 1078 -1024 0
1 1078 1074 0
1 1077 -1079 0
1 -1072 -1074 0
1 -1052 -1045 0
1 -1080 1081 0
1 1082 1051 0
1 1062 -1051 0
1 -1083 -1084 0
1 1085 -1071 0
1 1085 1062 0
1 1085 1084 0
1 -1086 1080 0
1 1086 1082 0
1 1081 1062 0
1 -1081 -1043 0
1 -1070 -1058 0
1 -1070 1017 0
1 -1071 1083 0
1 -1071 -1050 0
1 1071 1066 0
1 1084 1051 0
1 -1087 1088 0
1 1087 1085 0
1 1051 -1089 0
1 -1051 -1048 0
1 -1051 -1084 0
1 -1090 1070 0
1 1091 -1084 0
1 -1076 1075 0
1 -1076 -1051 0
1 1089 1038 0
1 -1089 -1092 0
1 -1093 1051 0
1 -1094 1051 0
1 1094 1069 0
1 -1095 -1076 0
1 -1096 1087 0
1 1096 -1058 0
1 1064 1093 0
1 -1064 1094 0
